199
139
185
279
201
260
213
143
293
171
177
300
300
231
251
225
251
128
105
274
93
342
130
579
138
135
203
162
232
260
213
212
184
128
255
224
449
191
237
198
226
218
236
241
278
230
211
132
231
292
227
333
281
191
237
108
195
205
153
269
172
236
268
298
317
146
156
272
132
147
143
192
315
235
182
214
273
291
90
263
196
342
138
168
369
133
152
269
272
183
145
146
324
200
150
271
123
360
412
304
